19
150 12 16 17 11 6 12 2 11 12 6 15 10 12 16 16 17 5 6
120
29 0 0 0 0 0 0 0 0 0 0 0 0 0 0 0 0 0 0 1
26 0 0 0 0 0 0 0 0 0 0 0 0 0 0 0 0 0 0 1
83 0 0 0 0 0 0 0 0 0 0 0 0 0 0 0 0 0 0 1
82 0 0 0 0 0 0 0 0 0 0 0 0 0 0 0 0 0 0 1
92 0 0 0 0 0 0 0 0 0 0 0 0 0 0 0 0 0 0 1
95 0 0 0 0 0 0 0 0 0 0 0 0 0 0 0 0 0 0 1
87 0 0 0 0 0 0 0 0 0 0 0 0 0 0 0 0 0 0 1
63 0 0 0 0 0 0 0 0 0 0 0 0 0 0 0 0 0 0 1
57 0 0 0 0 0 0 0 0 0 0 0 0 0 0 0 0 0 0 1
100 0 0 0 0 0 0 0 0 0 0 0 0 0 0 0 0 0 0 1
63 0 0 0 0 0 0 0 0 0 0 0 0 0 0 0 0 0 0 1
65 0 0 0 0 0 0 0 0 0 0 0 0 0 0 0 0 0 0 1
81 0 0 0 0 0 0 0 0 0 0 0 0 0 0 0 0 0 0 1
46 12 1 1 1 0 1 0 1 1 0 1 1 1 1 1 1 0 0 1
42 0 0 0 0 0 0 0 0 0 0 0 0 0 0 0 0 0 0 1
95 0 0 0 0 0 0 0 0 0 0 0 0 0 0 0 0 0 0 1
90 1 16 1 1 1 1 0 1 1 1 1 1 1 1 1 1 1 1 1
80 1 1 17 1 1 1 1 1 1 1 1 1 1 1 1 1 1 1 1
53 1 1 1 11 0 1 0 1 1 0 1 0 1 1 1 1 0 0 1
27 0 1 1 0 6 0 0 0 0 0 1 0 0 1 1 1 0 0 1
84 1 1 1 1 0 12 0 1 1 0 1 1 1 1 1 1 0 0 1
40 0 0 0 0 0 0 0 0 0 0 0 0 0 0 0 0 0 0 1
22 0 0 0 0 0 0 0 0 0 0 0 0 0 0 0 0 0 0 1
97 0 0 1 0 0 0 2 0 0 0 0 0 0 0 0 1 0 0 1
20 0 0 0 0 0 0 0 0 0 0 0 0 0 0 0 0 0 0 1
73 0 0 0 0 0 0 0 0 0 0 0 0 0 0 0 0 0 0 1
63 0 0 0 0 0 0 0 0 0 0 0 0 0 0 0 0 0 0 1
95 0 0 0 0 0 0 0 0 0 0 0 0 0 0 0 0 0 0 1
46 0 0 0 0 0 0 0 0 0 0 0 0 0 0 0 0 0 0 1
42 0 0 0 0 0 0 0 0 0 0 0 0 0 0 0 0 0 0 1
47 0 0 0 0 0 0 0 0 0 0 0 0 0 0 0 0 0 0 1
40 0 0 0 0 0 0 0 0 0 0 0 0 0 0 0 0 0 0 1
26 0 0 0 0 0 0 0 0 0 0 0 0 0 0 0 0 0 0 1
88 0 0 0 0 0 0 0 0 0 0 0 0 0 0 0 0 0 0 1
49 1 1 1 1 0 1 0 11 1 0 1 0 1 1 1 1 0 0 1
24 0 0 0 0 0 0 0 0 0 0 0 0 0 0 0 0 0 0 1
92 0 0 0 0 0 0 0 0 0 0 0 0 0 0 0 0 0 0 1
87 0 0 0 0 0 0 0 0 0 0 0 0 0 0 0 0 0 0 1
68 1 1 1 1 0 1 0 1 12 0 1 1 1 1 1 1 0 0 1
95 0 0 0 0 0 0 0 0 0 0 0 0 0 0 0 0 0 0 1
34 0 0 0 0 0 0 0 0 0 0 0 0 0 0 0 0 0 0 1
82 0 0 0 0 0 0 0 0 0 0 0 0 0 0 0 0 0 0 1
84 0 1 1 0 0 0 0 0 0 6 1 0 0 1 1 1 0 0 1
43 1 1 1 1 1 1 0 1 1 1 15 1 1 1 1 1 0 1 1
54 0 0 0 0 0 0 0 0 0 0 0 0 0 0 0 0 0 0 1
73 0 0 0 0 0 0 0 0 0 0 0 0 0 0 0 0 0 0 1
66 0 0 0 0 0 0 0 0 0 0 0 0 0 0 0 0 0 0 1
32 0 0 0 0 0 0 0 0 0 0 0 0 0 0 0 0 0 0 1
62 0 0 0 0 0 0 0 0 0 0 0 0 0 0 0 0 0 0 1
48 0 0 0 0 0 0 0 0 0 0 0 0 0 0 0 0 0 0 1
99 0 0 0 0 0 0 0 0 0 0 0 0 0 0 0 0 0 0 1
90 0 0 0 0 0 0 0 0 0 0 0 0 0 0 0 0 0 0 1
86 1 1 1 0 0 1 0 0 1 0 1 10 1 1 1 1 0 0 1
28 0 0 0 0 0 0 0 0 0 0 0 0 0 0 0 0 0 0 1
25 0 0 0 0 0 0 0 0 0 0 0 0 0 0 0 0 0 0 1
25 0 0 0 0 0 0 0 0 0 0 0 0 0 0 0 0 0 0 1
89 0 0 0 0 0 0 0 0 0 0 0 0 0 0 0 0 0 0 1
67 0 0 0 0 0 0 0 0 0 0 0 0 0 0 0 0 0 0 1
96 0 0 0 0 0 0 0 0 0 0 0 0 0 0 0 0 0 0 1
35 0 0 0 0 0 0 0 0 0 0 0 0 0 0 0 0 0 0 1
33 0 0 0 0 0 0 0 0 0 0 0 0 0 0 0 0 0 0 1
70 0 0 0 0 0 0 0 0 0 0 0 0 0 0 0 0 0 0 1
40 0 0 0 0 0 0 0 0 0 0 0 0 0 0 0 0 0 0 1
59 0 0 0 0 0 0 0 0 0 0 0 0 0 0 0 0 0 0 1
32 0 0 0 0 0 0 0 0 0 0 0 0 0 0 0 0 0 0 1
94 0 0 0 0 0 0 0 0 0 0 0 0 0 0 0 0 0 0 1
34 0 0 0 0 0 0 0 0 0 0 0 0 0 0 0 0 0 0 1
86 0 0 0 0 0 0 0 0 0 0 0 0 0 0 0 0 0 0 1
35 0 0 0 0 0 0 0 0 0 0 0 0 0 0 0 0 0 0 1
45 0 0 0 0 0 0 0 0 0 0 0 0 0 0 0 0 0 0 1
25 0 0 0 0 0 0 0 0 0 0 0 0 0 0 0 0 0 0 1
76 0 0 0 0 0 0 0 0 0 0 0 0 0 0 0 0 0 0 1
80 0 0 0 0 0 0 0 0 0 0 0 0 0 0 0 0 0 0 1
42 0 0 0 0 0 0 0 0 0 0 0 0 0 0 0 0 0 0 1
91 0 0 0 0 0 0 0 0 0 0 0 0 0 0 0 0 0 0 1
44 0 0 0 0 0 0 0 0 0 0 0 0 0 0 0 0 0 0 1
91 0 0 0 0 0 0 0 0 0 0 0 0 0 0 0 0 0 0 1
97 0 0 0 0 0 0 0 0 0 0 0 0 0 0 0 0 0 0 1
60 1 1 1 1 0 1 0 1 1 0 1 1 12 1 1 1 0 0 1
29 1 1 1 1 1 1 0 1 1 1 1 1 1 16 1 1 1 1 1
45 0 0 0 0 0 0 0 0 0 0 0 0 0 0 0 0 0 0 1
37 0 0 0 0 0 0 0 0 0 0 0 0 0 0 0 0 0 0 1
61 0 0 0 0 0 0 0 0 0 0 0 0 0 0 0 0 0 0 1
54 0 0 0 0 0 0 0 0 0 0 0 0 0 0 0 0 0 0 1
78 0 0 0 0 0 0 0 0 0 0 0 0 0 0 0 0 0 0 1
56 0 0 0 0 0 0 0 0 0 0 0 0 0 0 0 0 0 0 1
74 0 0 0 0 0 0 0 0 0 0 0 0 0 0 0 0 0 0 1
74 0 0 0 0 0 0 0 0 0 0 0 0 0 0 0 0 0 0 1
45 0 0 0 0 0 0 0 0 0 0 0 0 0 0 0 0 0 0 1
21 0 0 0 0 0 0 0 0 0 0 0 0 0 0 0 0 0 0 1
96 0 0 0 0 0 0 0 0 0 0 0 0 0 0 0 0 0 0 1
37 0 0 0 0 0 0 0 0 0 0 0 0 0 0 0 0 0 0 1
75 0 0 0 0 0 0 0 0 0 0 0 0 0 0 0 0 0 0 1
100 0 0 0 0 0 0 0 0 0 0 0 0 0 0 0 0 0 0 1
58 0 0 0 0 0 0 0 0 0 0 0 0 0 0 0 0 0 0 1
84 0 0 0 0 0 0 0 0 0 0 0 0 0 0 0 0 0 0 1
85 1 1 1 1 1 1 0 1 1 1 1 1 1 1 16 1 1 1 1
56 0 0 0 0 0 0 0 0 0 0 0 0 0 0 0 0 0 0 1
54 0 0 0 0 0 0 0 0 0 0 0 0 0 0 0 0 0 0 1
71 1 1 1 1 1 1 1 1 1 1 1 1 1 1 1 17 1 1 1
52 0 0 0 0 0 0 0 0 0 0 0 0 0 0 0 0 0 0 1
79 0 0 0 0 0 0 0 0 0 0 0 0 0 0 0 0 0 0 1
43 0 0 0 0 0 0 0 0 0 0 0 0 0 0 0 0 0 0 1
35 0 0 0 0 0 0 0 0 0 0 0 0 0 0 0 0 0 0 1
27 0 1 1 0 0 0 0 0 0 0 0 0 0 1 1 1 5 0 1
70 0 0 0 0 0 0 0 0 0 0 0 0 0 0 0 0 0 0 1
31 0 0 0 0 0 0 0 0 0 0 0 0 0 0 0 0 0 0 1
47 0 0 0 0 0 0 0 0 0 0 0 0 0 0 0 0 0 0 1
35 0 0 0 0 0 0 0 0 0 0 0 0 0 0 0 0 0 0 1
26 0 0 0 0 0 0 0 0 0 0 0 0 0 0 0 0 0 0 1
30 0 0 0 0 0 0 0 0 0 0 0 0 0 0 0 0 0 0 1
97 0 0 0 0 0 0 0 0 0 0 0 0 0 0 0 0 0 0 1
90 0 0 0 0 0 0 0 0 0 0 0 0 0 0 0 0 0 0 1
80 0 0 0 0 0 0 0 0 0 0 0 0 0 0 0 0 0 0 1
58 0 0 0 0 0 0 0 0 0 0 0 0 0 0 0 0 0 0 1
60 0 0 0 0 0 0 0 0 0 0 0 0 0 0 0 0 0 0 1
73 0 0 0 0 0 0 0 0 0 0 0 0 0 0 0 0 0 0 1
46 0 0 0 0 0 0 0 0 0 0 0 0 0 0 0 0 0 0 1
71 0 1 1 0 0 0 0 0 0 0 1 0 0 1 1 1 0 6 1
39 0 0 0 0 0 0 0 0 0 0 0 0 0 0 0 0 0 0 1
